(set-info :smt-lib-version 2.6)
(set-logic QF_FP)
(set-info :source |
Generated by: Chenqi Cui
Generated on: 2025-12-25
Generator: AutoSMTGen
Application: Generating SMT constraints with small solution spaces to make them challenging for SMT solvers
Target solver: Z3, CVC5, Bitwuzla
|)
(set-info :license "https://creativecommons.org/licenses/by/4.0/")
(set-info :category "industrial")
(set-info :status sat)
; benchmark generated from python API

(declare-fun x7 () (_ FloatingPoint 11 53))
(declare-fun x6 () (_ FloatingPoint 11 53))
(declare-fun x5 () (_ FloatingPoint 11 53))
(declare-fun x4 () (_ FloatingPoint 11 53))
(declare-fun x3 () (_ FloatingPoint 11 53))
(declare-fun x2 () (_ FloatingPoint 11 53))
(declare-fun x1 () (_ FloatingPoint 11 53))
(declare-fun x0 () (_ FloatingPoint 11 53))
(assert
 (let ((?x18 (fp.add roundNearestTiesToEven (fp.mul roundNearestTiesToEven (fp #b0 #b10000000101 #x594db3df9e4ad) x0) (fp.mul roundNearestTiesToEven (fp #b0 #b10000000100 #xa0692da072f47) x1))))
 (let ((?x21 (fp.add roundNearestTiesToEven ?x18 (fp.mul roundNearestTiesToEven (fp #b1 #b10000000100 #xeb15441410119) x2))))
 (let ((?x24 (fp.add roundNearestTiesToEven ?x21 (fp.mul roundNearestTiesToEven (fp #b1 #b10000000101 #x15ea828ac1117) x3))))
 (let ((?x27 (fp.add roundNearestTiesToEven ?x24 (fp.mul roundNearestTiesToEven (fp #b0 #b10000000011 #xc43794f4df688) x4))))
 (let ((?x30 (fp.add roundNearestTiesToEven ?x27 (fp.mul roundNearestTiesToEven (fp #b0 #b10000000101 #x4bcbbc2611e1e) x5))))
 (let ((?x33 (fp.add roundNearestTiesToEven ?x30 (fp.mul roundNearestTiesToEven (fp #b1 #b10000000011 #xb96dafede387c) x6))))
 (let ((?x36 (fp.add roundNearestTiesToEven ?x33 (fp.mul roundNearestTiesToEven (fp #b0 #b10000000011 #xc30c58145dab7) x7))))
 (fp.leq ?x36 (fp #b0 #b10000000101 #x792ee0a0e317d))))))))))
(assert
 (let ((?x60 (fp.add roundNearestTiesToEven (fp.mul roundNearestTiesToEven (fp #b1 #b10000000101 #x5f0d781710548) x0) (fp.mul roundNearestTiesToEven (fp #b0 #b10000000101 #x63d04aacf98be) x1))))
 (let ((?x63 (fp.add roundNearestTiesToEven ?x60 (fp.mul roundNearestTiesToEven (fp #b0 #b10000000011 #x5abc6a9daf269) x2))))
 (let ((?x66 (fp.add roundNearestTiesToEven ?x63 (fp.mul roundNearestTiesToEven (fp #b0 #b10000000101 #x3d45de4ca009b) x3))))
 (let ((?x69 (fp.add roundNearestTiesToEven ?x66 (fp.mul roundNearestTiesToEven (fp #b0 #b10000000101 #x04f5d74bcbc88) x4))))
 (let ((?x72 (fp.add roundNearestTiesToEven ?x69 (fp.mul roundNearestTiesToEven (fp #b0 #b10000000011 #x199864ea54265) x5))))
 (let ((?x75 (fp.add roundNearestTiesToEven ?x72 (fp.mul roundNearestTiesToEven (fp #b1 #b10000000101 #x2eeddad22680f) x6))))
 (let ((?x78 (fp.add roundNearestTiesToEven ?x75 (fp.mul roundNearestTiesToEven (fp #b1 #b10000000101 #x7fca8dc71b306) x7))))
 (fp.leq ?x78 (fp #b0 #b10000000011 #xbc515f102162f))))))))))
(assert
 (let ((?x85 (fp.add roundNearestTiesToEven (fp.mul roundNearestTiesToEven (fp #b1 #b10000000100 #xf076564925903) x0) (fp.mul roundNearestTiesToEven (fp #b0 #b10000000011 #x27bfaf025452c) x1))))
 (let ((?x88 (fp.add roundNearestTiesToEven ?x85 (fp.mul roundNearestTiesToEven (fp #b0 #b10000000101 #x3c095a3976a1b) x2))))
 (let ((?x91 (fp.add roundNearestTiesToEven ?x88 (fp.mul roundNearestTiesToEven (fp #b0 #b10000000011 #xccb943e4e6dd7) x3))))
 (let ((?x94 (fp.add roundNearestTiesToEven ?x91 (fp.mul roundNearestTiesToEven (fp #b1 #b10000000101 #x83fe07ccb895f) x4))))
 (let ((?x97 (fp.add roundNearestTiesToEven ?x94 (fp.mul roundNearestTiesToEven (fp #b0 #b10000000010 #x941a39387d744) x5))))
 (let ((?x100 (fp.add roundNearestTiesToEven ?x97 (fp.mul roundNearestTiesToEven (fp #b0 #b10000000100 #xfec11fd03042b) x6))))
 (let ((?x103 (fp.add roundNearestTiesToEven ?x100 (fp.mul roundNearestTiesToEven (fp #b1 #b10000000101 #x58d27eff70ab5) x7))))
 (fp.leq ?x103 (fp #b0 #b10000000101 #x85966dec52f82))))))))))
(assert
 (let ((?x110 (fp.add roundNearestTiesToEven (fp.mul roundNearestTiesToEven (fp #b0 #b10000000101 #x0ef75384809ba) x0) (fp.mul roundNearestTiesToEven (fp #b1 #b10000000101 #x58f97b8a64c42) x1))))
 (let ((?x113 (fp.add roundNearestTiesToEven ?x110 (fp.mul roundNearestTiesToEven (fp #b1 #b10000000010 #x54f4b3280f0f4) x2))))
 (let ((?x116 (fp.add roundNearestTiesToEven ?x113 (fp.mul roundNearestTiesToEven (fp #b1 #b10000000001 #x61da8cfdd54d3) x3))))
 (let ((?x119 (fp.add roundNearestTiesToEven ?x116 (fp.mul roundNearestTiesToEven (fp #b0 #b10000000100 #x50cf47cfcf15f) x4))))
 (let ((?x122 (fp.add roundNearestTiesToEven ?x119 (fp.mul roundNearestTiesToEven (fp #b0 #b10000000100 #x29b5bb75ec2d1) x5))))
 (let ((?x125 (fp.add roundNearestTiesToEven ?x122 (fp.mul roundNearestTiesToEven (fp #b1 #b10000000101 #x35828cba38899) x6))))
 (let ((?x128 (fp.add roundNearestTiesToEven ?x125 (fp.mul roundNearestTiesToEven (fp #b0 #b10000000011 #x74e4236c96021) x7))))
 (fp.leq ?x128 (fp #b1 #b10000000101 #x201fcee97db78))))))))))
(assert
 (let ((?x135 (fp.add roundNearestTiesToEven (fp.mul roundNearestTiesToEven (fp #b0 #b10000000100 #x7334d952ac29d) x0) (fp.mul roundNearestTiesToEven (fp #b1 #b10000000101 #x0688eebd3f5ca) x1))))
 (let ((?x138 (fp.add roundNearestTiesToEven ?x135 (fp.mul roundNearestTiesToEven (fp #b0 #b10000000101 #x0f6fd27781fe7) x2))))
 (let ((?x141 (fp.add roundNearestTiesToEven ?x138 (fp.mul roundNearestTiesToEven (fp #b0 #b10000000101 #x706a0dce9e4f7) x3))))
 (let ((?x144 (fp.add roundNearestTiesToEven ?x141 (fp.mul roundNearestTiesToEven (fp #b0 #b10000000101 #xa4d525e799bfb) x4))))
 (let ((?x147 (fp.add roundNearestTiesToEven ?x144 (fp.mul roundNearestTiesToEven (fp #b1 #b10000000100 #x1a2c55f9304b2) x5))))
 (let ((?x150 (fp.add roundNearestTiesToEven ?x147 (fp.mul roundNearestTiesToEven (fp #b1 #b10000000101 #x384d20d0b3bd8) x6))))
 (let ((?x153 (fp.add roundNearestTiesToEven ?x150 (fp.mul roundNearestTiesToEven (fp #b0 #b10000000100 #xec842d579ac8f) x7))))
 (fp.leq ?x153 (fp #b1 #b10000000011 #x1dc1b74f15c47))))))))))
(assert
 (let ((?x160 (fp.add roundNearestTiesToEven (fp.mul roundNearestTiesToEven (fp #b1 #b10000000100 #x2403847b8f2f5) x0) (fp.mul roundNearestTiesToEven (fp #b1 #b10000000101 #x32cd8e01b4eda) x1))))
 (let ((?x163 (fp.add roundNearestTiesToEven ?x160 (fp.mul roundNearestTiesToEven (fp #b1 #b10000000001 #xb29644e4918f9) x2))))
 (let ((?x166 (fp.add roundNearestTiesToEven ?x163 (fp.mul roundNearestTiesToEven (fp #b0 #b10000000101 #x70da769c2739c) x3))))
 (let ((?x169 (fp.add roundNearestTiesToEven ?x166 (fp.mul roundNearestTiesToEven (fp #b0 #b10000000101 #x50884c6b251f8) x4))))
 (let ((?x172 (fp.add roundNearestTiesToEven ?x169 (fp.mul roundNearestTiesToEven (fp #b1 #b10000000011 #xc8a563c642319) x5))))
 (let ((?x175 (fp.add roundNearestTiesToEven ?x172 (fp.mul roundNearestTiesToEven (fp #b1 #b10000000011 #x32243b6dc8c25) x6))))
 (let ((?x178 (fp.add roundNearestTiesToEven ?x175 (fp.mul roundNearestTiesToEven (fp #b1 #b10000000101 #x09bd51c7ba528) x7))))
 (fp.leq ?x178 (fp #b1 #b10000000100 #x3f77c6a0e9ac6))))))))))
(assert
 (let ((?x185 (fp.add roundNearestTiesToEven (fp.mul roundNearestTiesToEven (fp #b0 #b10000000100 #x09deb6893644b) x0) (fp.mul roundNearestTiesToEven (fp #b0 #b10000000101 #x82e9b8a4d35e4) x1))))
 (let ((?x188 (fp.add roundNearestTiesToEven ?x185 (fp.mul roundNearestTiesToEven (fp #b1 #b10000000101 #x52a638bd33c14) x2))))
 (let ((?x191 (fp.add roundNearestTiesToEven ?x188 (fp.mul roundNearestTiesToEven (fp #b1 #b10000000011 #x7bdde9ccdc389) x3))))
 (let ((?x194 (fp.add roundNearestTiesToEven ?x191 (fp.mul roundNearestTiesToEven (fp #b1 #b10000000100 #x3d6a4d306e5d5) x4))))
 (let ((?x197 (fp.add roundNearestTiesToEven ?x194 (fp.mul roundNearestTiesToEven (fp #b1 #b10000000100 #xc3fb5af29cb6b) x5))))
 (let ((?x200 (fp.add roundNearestTiesToEven ?x197 (fp.mul roundNearestTiesToEven (fp #b1 #b10000000010 #x3bb6e4b26b099) x6))))
 (let ((?x203 (fp.add roundNearestTiesToEven ?x200 (fp.mul roundNearestTiesToEven (fp #b0 #b10000000010 #x40a650923f654) x7))))
 (fp.leq ?x203 (fp #b0 #b10000000011 #x2d29e0aac10b4))))))))))
(assert
 (let ((?x210 (fp.add roundNearestTiesToEven (fp.mul roundNearestTiesToEven (fp #b0 #b10000000001 #x44733cba7e719) x0) (fp.mul roundNearestTiesToEven (fp #b0 #b10000000100 #xb083625ac8b7a) x1))))
 (let ((?x213 (fp.add roundNearestTiesToEven ?x210 (fp.mul roundNearestTiesToEven (fp #b1 #b10000000100 #x4c083537103f8) x2))))
 (let ((?x216 (fp.add roundNearestTiesToEven ?x213 (fp.mul roundNearestTiesToEven (fp #b1 #b10000000101 #x10b1e94543473) x3))))
 (let ((?x219 (fp.add roundNearestTiesToEven ?x216 (fp.mul roundNearestTiesToEven (fp #b1 #b10000000101 #x365f29fa0f4d6) x4))))
 (let ((?x222 (fp.add roundNearestTiesToEven ?x219 (fp.mul roundNearestTiesToEven (fp #b0 #b10000000001 #xac3a60a9f685a) x5))))
 (let ((?x225 (fp.add roundNearestTiesToEven ?x222 (fp.mul roundNearestTiesToEven (fp #b1 #b10000000100 #xa09b2023e3ad6) x6))))
 (let ((?x228 (fp.add roundNearestTiesToEven ?x225 (fp.mul roundNearestTiesToEven (fp #b1 #b10000000100 #x0601144b8190b) x7))))
 (fp.leq ?x228 (fp #b1 #b10000000010 #x707ea1b52efcd))))))))))
(assert
 (let ((?x235 (fp.add roundNearestTiesToEven (fp.mul roundNearestTiesToEven (fp #b0 #b10000000101 #x54a3026ec17b6) x0) (fp.mul roundNearestTiesToEven (fp #b1 #b10000000100 #x90fabdb62ac19) x1))))
 (let ((?x238 (fp.add roundNearestTiesToEven ?x235 (fp.mul roundNearestTiesToEven (fp #b1 #b10000000100 #x38dfe964e24c3) x2))))
 (let ((?x241 (fp.add roundNearestTiesToEven ?x238 (fp.mul roundNearestTiesToEven (fp #b0 #b10000000100 #xf79c778331e18) x3))))
 (let ((?x244 (fp.add roundNearestTiesToEven ?x241 (fp.mul roundNearestTiesToEven (fp #b1 #b10000000011 #x6787d4ebd8154) x4))))
 (let ((?x247 (fp.add roundNearestTiesToEven ?x244 (fp.mul roundNearestTiesToEven (fp #b0 #b10000000101 #x581c7d2574b71) x5))))
 (let ((?x250 (fp.add roundNearestTiesToEven ?x247 (fp.mul roundNearestTiesToEven (fp #b1 #b10000000011 #x089c3d6ef665c) x6))))
 (let ((?x253 (fp.add roundNearestTiesToEven ?x250 (fp.mul roundNearestTiesToEven (fp #b0 #b10000000011 #x50e31487068b8) x7))))
 (fp.leq ?x253 (fp #b0 #b10000000100 #xfa3cf501188b1))))))))))
(assert
 (let ((?x260 (fp.add roundNearestTiesToEven (fp.mul roundNearestTiesToEven (fp #b0 #b10000000010 #x8f6897cff0390) x0) (fp.mul roundNearestTiesToEven (fp #b0 #b10000000100 #x795f8bccbaad8) x1))))
 (let ((?x263 (fp.add roundNearestTiesToEven ?x260 (fp.mul roundNearestTiesToEven (fp #b1 #b01111111111 #x616f64f00e646) x2))))
 (let ((?x266 (fp.add roundNearestTiesToEven ?x263 (fp.mul roundNearestTiesToEven (fp #b1 #b10000000101 #x6edf0da177468) x3))))
 (let ((?x269 (fp.add roundNearestTiesToEven ?x266 (fp.mul roundNearestTiesToEven (fp #b1 #b10000000100 #xcbb276d364673) x4))))
 (let ((?x272 (fp.add roundNearestTiesToEven ?x269 (fp.mul roundNearestTiesToEven (fp #b1 #b10000000101 #x09b6df23e93c9) x5))))
 (let ((?x275 (fp.add roundNearestTiesToEven ?x272 (fp.mul roundNearestTiesToEven (fp #b0 #b10000000100 #x1e34a721646e3) x6))))
 (let ((?x278 (fp.add roundNearestTiesToEven ?x275 (fp.mul roundNearestTiesToEven (fp #b0 #b10000000010 #x1af77aafaef07) x7))))
 (fp.leq ?x278 (fp #b0 #b10000000101 #x82fb1c3f55153))))))))))
(assert
 (let ((?x285 (fp.add roundNearestTiesToEven (fp.mul roundNearestTiesToEven (fp #b0 #b10000000101 #x679f7868b707f) x0) (fp.mul roundNearestTiesToEven (fp #b0 #b10000000101 #x2d296d90ce29c) x1))))
 (let ((?x288 (fp.add roundNearestTiesToEven ?x285 (fp.mul roundNearestTiesToEven (fp #b1 #b10000000101 #x2c98921292d5f) x2))))
 (let ((?x291 (fp.add roundNearestTiesToEven ?x288 (fp.mul roundNearestTiesToEven (fp #b1 #b10000000100 #xb5c6591c5194f) x3))))
 (let ((?x294 (fp.add roundNearestTiesToEven ?x291 (fp.mul roundNearestTiesToEven (fp #b0 #b10000000011 #x3d84fa70a3910) x4))))
 (let ((?x297 (fp.add roundNearestTiesToEven ?x294 (fp.mul roundNearestTiesToEven (fp #b1 #b10000000101 #x86ffed106ffb3) x5))))
 (let ((?x300 (fp.add roundNearestTiesToEven ?x297 (fp.mul roundNearestTiesToEven (fp #b1 #b10000000100 #xa8e9ba6ff923b) x6))))
 (let ((?x303 (fp.add roundNearestTiesToEven ?x300 (fp.mul roundNearestTiesToEven (fp #b0 #b10000000101 #x4602a2afdf385) x7))))
 (fp.leq ?x303 (fp #b1 #b10000000101 #x6dfb837aef7a8))))))))))
(assert
 (let ((?x310 (fp.add roundNearestTiesToEven (fp.mul roundNearestTiesToEven (fp #b1 #b10000000101 #x7411896d44839) x0) (fp.mul roundNearestTiesToEven (fp #b0 #b10000000101 #x7b31113562bfc) x1))))
(let ((?x313 (fp.add roundNearestTiesToEven ?x310 (fp.mul roundNearestTiesToEven (fp #b0 #b10000000010 #x16c1e61bde5a2) x2))))
(let ((?x316 (fp.add roundNearestTiesToEven ?x313 (fp.mul roundNearestTiesToEven (fp #b0 #b10000000101 #x469d114116b2b) x3))))
(let ((?x319 (fp.add roundNearestTiesToEven ?x316 (fp.mul roundNearestTiesToEven (fp #b0 #b10000000101 #x728878b499f1c) x4))))
(let ((?x322 (fp.add roundNearestTiesToEven ?x319 (fp.mul roundNearestTiesToEven (fp #b0 #b10000000010 #x550ad46076647) x5))))
(let ((?x325 (fp.add roundNearestTiesToEven ?x322 (fp.mul roundNearestTiesToEven (fp #b0 #b10000000101 #x7670f499ad9b8) x6))))
(let ((?x328 (fp.add roundNearestTiesToEven ?x325 (fp.mul roundNearestTiesToEven (fp #b0 #b10000000101 #x663b21ffa490a) x7))))
(fp.leq ?x328 (fp #b0 #b10000000000 #x8eb9f81fb92f0))))))))))
(check-sat)
(exit)
